solution status: time limit reached
objective value:                                 -346
x_345                                               1 	(obj:-1)
x_1781                                              1 	(obj:-1)
x_103                                               1 	(obj:-1)
x_104                                               1 	(obj:-1)
x_2046                                              1 	(obj:-1)
x_2045                                              1 	(obj:-1)
x_2041                                              1 	(obj:-1)
x_2038                                              1 	(obj:-1)
x_1000                                              1 	(obj:-1)
x_99                                                1 	(obj:-1)
x_90                                                1 	(obj:-1)
x_95                                                1 	(obj:-1)
x_1998                                              1 	(obj:-1)
x_1629                                              1 	(obj:-1)
x_556                                               1 	(obj:-1)
x_1755                                              1 	(obj:-1)
x_1171                                              1 	(obj:-1)
x_1179                                              1 	(obj:-1)
x_1007                                              1 	(obj:-1)
x_1287                                              1 	(obj:-1)
x_621                                               1 	(obj:-1)
x_1224                                              1 	(obj:-1)
x_1222                                              1 	(obj:-1)
x_406                                               1 	(obj:-1)
x_408                                               1 	(obj:-1)
x_453                                               1 	(obj:-1)
x_1346                                              1 	(obj:-1)
x_1018                                              1 	(obj:-1)
x_378                                               1 	(obj:-1)
x_393                                               1 	(obj:-1)
x_392                                               1 	(obj:-1)
x_397                                               1 	(obj:-1)
x_895                                               1 	(obj:-1)
x_244                                               1 	(obj:-1)
x_241                                               1 	(obj:-1)
x_242                                               1 	(obj:-1)
x_249                                               1 	(obj:-1)
x_248                                               1 	(obj:-1)
x_178                                               1 	(obj:-1)
x_173                                               1 	(obj:-1)
x_1502                                              1 	(obj:-1)
x_1977                                              1 	(obj:-1)
x_1972                                              1 	(obj:-1)
x_1968                                              1 	(obj:-1)
x_1614                                              1 	(obj:-1)
x_1985                                              1 	(obj:-1)
x_1761                                              1 	(obj:-1)
x_1764                                              1 	(obj:-1)
x_1765                                              1 	(obj:-1)
x_1142                                              1 	(obj:-1)
x_1144                                              1 	(obj:-1)
x_1145                                              1 	(obj:-1)
x_1149                                              1 	(obj:-1)
x_692                                               1 	(obj:-1)
x_1544                                              1 	(obj:-1)
x_1540                                              1 	(obj:-1)
x_1541                                              1 	(obj:-1)
x_1549                                              1 	(obj:-1)
x_541                                               1 	(obj:-1)
x_547                                               1 	(obj:-1)
x_1783                                              1 	(obj:-1)
x_415                                               1 	(obj:-1)
x_416                                               1 	(obj:-1)
x_1380                                              1 	(obj:-1)
x_388                                               1 	(obj:-1)
x_258                                               1 	(obj:-1)
x_253                                               1 	(obj:-1)
x_256                                               1 	(obj:-1)
x_255                                               1 	(obj:-1)
x_164                                               1 	(obj:-1)
x_1841                                              1 	(obj:-1)
x_1818                                              1 	(obj:-1)
x_1600                                              1 	(obj:-1)
x_1605                                              1 	(obj:-1)
x_1607                                              1 	(obj:-1)
x_803                                               1 	(obj:-1)
x_807                                               1 	(obj:-1)
x_1154                                              1 	(obj:-1)
x_1151                                              1 	(obj:-1)
x_1152                                              1 	(obj:-1)
x_1551                                              1 	(obj:-1)
x_1554                                              1 	(obj:-1)
x_57                                                1 	(obj:-1)
x_52                                                1 	(obj:-1)
x_534                                               1 	(obj:-1)
x_227                                               1 	(obj:-1)
x_225                                               1 	(obj:-1)
x_222                                               1 	(obj:-1)
x_221                                               1 	(obj:-1)
x_1807                                              1 	(obj:-1)
x_1805                                              1 	(obj:-1)
x_1801                                              1 	(obj:-1)
x_1800                                              1 	(obj:-1)
x_1808                                              1 	(obj:-1)
x_1524                                              1 	(obj:-1)
x_1946                                              1 	(obj:-1)
x_1945                                              1 	(obj:-1)
x_1121                                              1 	(obj:-1)
x_1122                                              1 	(obj:-1)
x_1127                                              1 	(obj:-1)
x_521                                               1 	(obj:-1)
x_1017                                              1 	(obj:-1)
x_1231                                              1 	(obj:-1)
x_1232                                              1 	(obj:-1)
x_437                                               1 	(obj:-1)
x_231                                               1 	(obj:-1)
x_146                                               1 	(obj:-1)
x_144                                               1 	(obj:-1)
x_143                                               1 	(obj:-1)
x_141                                               1 	(obj:-1)
x_938                                               1 	(obj:-1)
x_1951                                              1 	(obj:-1)
x_829                                               1 	(obj:-1)
x_825                                               1 	(obj:-1)
x_824                                               1 	(obj:-1)
x_1480                                              1 	(obj:-1)
x_1488                                              1 	(obj:-1)
x_797                                               1 	(obj:-1)
x_793                                               1 	(obj:-1)
x_798                                               1 	(obj:-1)
x_1138                                              1 	(obj:-1)
x_1137                                              1 	(obj:-1)
x_519                                               1 	(obj:-1)
x_1009                                              1 	(obj:-1)
x_512                                               1 	(obj:-1)
x_623                                               1 	(obj:-1)
x_1225                                              1 	(obj:-1)
x_1229                                              1 	(obj:-1)
x_11                                                1 	(obj:-1)
x_15                                                1 	(obj:-1)
x_17                                                1 	(obj:-1)
x_16                                                1 	(obj:-1)
x_206                                               1 	(obj:-1)
x_208                                               1 	(obj:-1)
x_1824                                              1 	(obj:-1)
x_1827                                              1 	(obj:-1)
x_1823                                              1 	(obj:-1)
x_928                                               1 	(obj:-1)
x_926                                               1 	(obj:-1)
x_1920                                              1 	(obj:-1)
x_1921                                              1 	(obj:-1)
x_1922                                              1 	(obj:-1)
x_1927                                              1 	(obj:-1)
x_1928                                              1 	(obj:-1)
x_1929                                              1 	(obj:-1)
x_831                                               1 	(obj:-1)
x_3                                                 1 	(obj:-1)
x_784                                               1 	(obj:-1)
x_785                                               1 	(obj:-1)
x_780                                               1 	(obj:-1)
x_1727                                              1 	(obj:-1)
x_60                                                1 	(obj:-1)
x_61                                                1 	(obj:-1)
x_64                                                1 	(obj:-1)
x_1581                                              1 	(obj:-1)
x_1585                                              1 	(obj:-1)
x_508                                               1 	(obj:-1)
x_509                                               1 	(obj:-1)
x_1032                                              1 	(obj:-1)
x_505                                               1 	(obj:-1)
x_502                                               1 	(obj:-1)
x_1101                                              1 	(obj:-1)
x_4                                                 1 	(obj:-1)
x_1852                                              1 	(obj:-1)
x_1853                                              1 	(obj:-1)
x_1856                                              1 	(obj:-1)
x_911                                               1 	(obj:-1)
x_912                                               1 	(obj:-1)
x_1936                                              1 	(obj:-1)
x_1935                                              1 	(obj:-1)
x_1938                                              1 	(obj:-1)
x_849                                               1 	(obj:-1)
x_1738                                              1 	(obj:-1)
x_1733                                              1 	(obj:-1)
x_1039                                              1 	(obj:-1)
x_1025                                              1 	(obj:-1)
x_1024                                              1 	(obj:-1)
x_1027                                              1 	(obj:-1)
x_1022                                              1 	(obj:-1)
x_1028                                              1 	(obj:-1)
x_1037                                              1 	(obj:-1)
x_602                                               1 	(obj:-1)
x_489                                               1 	(obj:-1)
x_488                                               1 	(obj:-1)
x_482                                               1 	(obj:-1)
x_481                                               1 	(obj:-1)
x_480                                               1 	(obj:-1)
x_197                                               1 	(obj:-1)
x_193                                               1 	(obj:-1)
x_900                                               1 	(obj:-1)
x_901                                               1 	(obj:-1)
x_904                                               1 	(obj:-1)
x_1843                                              1 	(obj:-1)
x_909                                               1 	(obj:-1)
x_1844                                              1 	(obj:-1)
x_1906                                              1 	(obj:-1)
x_1905                                              1 	(obj:-1)
x_854                                               1 	(obj:-1)
x_850                                               1 	(obj:-1)
x_743                                               1 	(obj:-1)
x_1055                                              1 	(obj:-1)
x_1057                                              1 	(obj:-1)
x_1697                                              1 	(obj:-1)
x_1692                                              1 	(obj:-1)
x_1791                                              1 	(obj:-1)
x_1278                                              1 	(obj:-1)
x_612                                               1 	(obj:-1)
x_613                                               1 	(obj:-1)
x_616                                               1 	(obj:-1)
x_1794                                              1 	(obj:-1)
x_1479                                              1 	(obj:-1)
x_1497                                              1 	(obj:-1)
x_498                                               1 	(obj:-1)
x_25                                                1 	(obj:-1)
x_29                                                1 	(obj:-1)
x_1087                                              1 	(obj:-1)
x_1085                                              1 	(obj:-1)
x_977                                               1 	(obj:-1)
x_975                                               1 	(obj:-1)
x_973                                               1 	(obj:-1)
x_1081                                              1 	(obj:-1)
x_180                                               1 	(obj:-1)
x_1914                                              1 	(obj:-1)
x_1916                                              1 	(obj:-1)
x_869                                               1 	(obj:-1)
x_2024                                              1 	(obj:-1)
x_2023                                              1 	(obj:-1)
x_887                                               1 	(obj:-1)
x_885                                               1 	(obj:-1)
x_771                                               1 	(obj:-1)
x_778                                               1 	(obj:-1)
x_72                                                1 	(obj:-1)
x_71                                                1 	(obj:-1)
x_1042                                              1 	(obj:-1)
x_1040                                              1 	(obj:-1)
x_1684                                              1 	(obj:-1)
x_1268                                              1 	(obj:-1)
x_1267                                              1 	(obj:-1)
x_1265                                              1 	(obj:-1)
x_1264                                              1 	(obj:-1)
x_8                                                 1 	(obj:-1)
x_1462                                              1 	(obj:-1)
x_1316                                              1 	(obj:-1)
x_1010                                              1 	(obj:-1)
x_311                                               1 	(obj:-1)
x_316                                               1 	(obj:-1)
x_1335                                              1 	(obj:-1)
x_1331                                              1 	(obj:-1)
x_1860                                              1 	(obj:-1)
x_1869                                              1 	(obj:-1)
x_964                                               1 	(obj:-1)
x_961                                               1 	(obj:-1)
x_962                                               1 	(obj:-1)
x_1560                                              1 	(obj:-1)
x_876                                               1 	(obj:-1)
x_1242                                              1 	(obj:-1)
x_2033                                              1 	(obj:-1)
x_2032                                              1 	(obj:-1)
x_897                                               1 	(obj:-1)
x_1537                                              1 	(obj:-1)
x_1078                                              1 	(obj:-1)
x_1072                                              1 	(obj:-1)
x_1674                                              1 	(obj:-1)
x_1096                                              1 	(obj:-1)
x_1092                                              1 	(obj:-1)
x_1093                                              1 	(obj:-1)
x_1997                                              1 	(obj:-1)
x_1533                                              1 	(obj:-1)
x_1324                                              1 	(obj:-1)
x_1251                                              1 	(obj:-1)
x_1528                                              1 	(obj:-1)
x_1895                                              1 	(obj:-1)
x_1896                                              1 	(obj:-1)
x_957                                               1 	(obj:-1)
x_956                                               1 	(obj:-1)
x_477                                               1 	(obj:-1)
x_2034                                              1 	(obj:-1)
x_1066                                              1 	(obj:-1)
x_591                                               1 	(obj:-1)
x_1088                                              1 	(obj:-1)
x_1408                                              1 	(obj:-1)
x_449                                               1 	(obj:-1)
x_444                                               1 	(obj:-1)
x_32                                                1 	(obj:-1)
x_31                                                1 	(obj:-1)
x_34                                                1 	(obj:-1)
x_641                                               1 	(obj:-1)
x_1246                                              1 	(obj:-1)
x_330                                               1 	(obj:-1)
x_133                                               1 	(obj:-1)
x_132                                               1 	(obj:-1)
x_2018                                              1 	(obj:-1)
x_2015                                              1 	(obj:-1)
x_2017                                              1 	(obj:-1)
x_2013                                              1 	(obj:-1)
x_1793                                              1 	(obj:-1)
x_81                                                1 	(obj:-1)
x_1658                                              1 	(obj:-1)
x_1650                                              1 	(obj:-1)
x_1656                                              1 	(obj:-1)
x_1657                                              1 	(obj:-1)
x_583                                               1 	(obj:-1)
x_1435                                              1 	(obj:-1)
x_1433                                              1 	(obj:-1)
x_418                                               1 	(obj:-1)
x_459                                               1 	(obj:-1)
x_452                                               1 	(obj:-1)
x_322                                               1 	(obj:-1)
x_1594                                              1 	(obj:-1)
x_1598                                              1 	(obj:-1)
x_994                                               1 	(obj:-1)
x_992                                               1 	(obj:-1)
x_120                                               1 	(obj:-1)
x_121                                               1 	(obj:-1)
x_123                                               1 	(obj:-1)
x_127                                               1 	(obj:-1)
x_128                                               1 	(obj:-1)
x_129                                               1 	(obj:-1)
x_1647                                              1 	(obj:-1)
x_1641                                              1 	(obj:-1)
x_1640                                              1 	(obj:-1)
x_1742                                              1 	(obj:-1)
x_462                                               1 	(obj:-1)
x_1275                                              1 	(obj:-1)
x_288                                               1 	(obj:-1)
x_281                                               1 	(obj:-1)
x_286                                               1 	(obj:-1)
x_1116                                              1 	(obj:-1)
x_268                                               1 	(obj:-1)
x_1562                                              1 	(obj:-1)
x_1567                                              1 	(obj:-1)
x_980                                               1 	(obj:-1)
x_113                                               1 	(obj:-1)
x_1796                                              1 	(obj:-1)
x_484                                               1 	(obj:-1)
x_1634                                              1 	(obj:-1)
x_1639                                              1 	(obj:-1)
x_1988                                              1 	(obj:-1)
x_1989                                              1 	(obj:-1)
x_561                                               1 	(obj:-1)
x_563                                               1 	(obj:-1)
x_1166                                              1 	(obj:-1)
x_42                                                1 	(obj:-1)
x_1568                                              1 	(obj:-1)
x_1569                                              1 	(obj:-1)
x_479                                               1 	(obj:-1)
